TCS_Benchmarks/redos_fix/snort1_output_distinct_2613_2612_0_0.txt
([^\n\r]*)(\s+)
([^\n\r]*)([nN][eE][tT][gG][uU][aA][rR][dD][eE][rR])(\s+)